Traveling Salesman Problem/TSP_generados/Aleatorio1620390900_7.tsp
NAME: Aleatorio1620390900_7.tsp
COMMENT: Randomly generated scenario
TYPE: TSP
DIMENSION: 7
EDGE_WEIGHT_TYPE: ATT
NODE_COORD_SECTION
1 13.53 45.34
2 46.88 34.74
3 18.64 49.85
4 6.19 35.19
5 33.79 28.95
6 3.73 18.22
7 44.65 32.3
