Traveling Salesman Problem/TSP_generados/Aleatorio1620390900_7.opt.tour
NAME: Aleatorio1620390900_7.opt.tour
COMMENT: Optimal solution for Aleatorio1620390900_7 (115.10525026622338)
TYPE: TOUR
DIMENSION: 7
TOUR_SECTION
1 3 2 7 5 6 4
-1
EOF
